NAME : portcgen-17-22
COMMENT : portcgen N=17, seed=22
TYPE : TSP
DIMENSION : 17
EDGE_WEIGHT_TYPE : EUC_2D
NODE_COORD_SECTION
1 21935 -186382
2 -178012 -26584
3 83191 423096
4 -52887 -85127
5 13289 390083
6 -169450 55510
7 157636 -196202
8 144049 -125101
9 -128709 500567
10 386701 19624
11 -182809 399051
12 -72956 -261496
13 394631 198222
14 -259222 -130658
15 154847 140988
16 141927 36083
17 236524 124156
